100
128
2
59
61
38
32
19
29
39
14
4
6
6
38
48
23
25
54
1
63
40
33
50
25
22
18
13
12
64
31
36
55
20
20
19
25
40
30
45
16
16
27
18
13
22
22
17
42
64
18
29
25
40
15
58
19
38
32
58
30
18
15
19
61
14
26
30
3
31
14
30
33
24
29
15
30
42
56
4
26
35
33
27
32
21
23
19
33
55
44
25
40
34
34
20
7
24
21
40
63
2